WARNING: for repeatability, setting FPU to use double precision
 -----------------------------------------------------------------------------------------------------------------------
|                                 manysat2.0    4 thread(s) on 8 core(s)                                                |
 -----------------------------------------------------------------------------------------------------------------------
 ===============================================[ Problem Statistics ]==================================================
|                                                                                                                       |
|  Number of cores:                 4                                                                                   |
|  Number of variables:         13408                                                                                   |
|  Number of clauses:          308391                                                                                   |
|  Parse time:                   0.31 s                                                                                 |
|                                                                                                                       |
 ==============================================[ Search Statistics ]====================================================
|   Thread  | Conflicts |          ORIGINAL         |          LEARNT          |  exported  / imported      |  Progress |
|    (id)   |           |    Vars  Clauses Literals |    Limit  Clauses Lit/Cl |  (clauses by restart)      |           |
 =======================================================================================================================
|         0 |       100 |   13014   308225  1771276 |   113015       95      5 |           0  -           0 |  2.939 %  |
|         0 |       250 |   13010   308225  1771276 |   124317      244      5 |           0  -           0 |  2.968 %  |
|         0 |       475 |   13010   308225  1771276 |   136749      518      6 |         780  -          52 |  2.968 %  |
|         3 |       100 |   13010   308225  1771276 |   113076      808      6 |        1175  -         712 |  2.968 %  |
|         2 |       100 |   13010   308225  1771276 |   113076      921      6 |        1175  -         825 |  2.968 %  |
|         1 |       100 |   13010   308225  1771276 |   113076      932      6 |        1175  -         832 |  2.968 %  |
|         1 |       250 |   13010   308225  1771276 |   124384     1470      6 |        1175  -        1220 |  2.968 %  |
|         3 |       250 |   13010   308225  1771276 |   124384     1472      6 |        1175  -        1226 |  2.968 %  |
|         2 |       250 |   13010   308225  1771276 |   124384     1554      6 |        1175  -        1308 |  2.968 %  |
|         0 |       812 |   13010   308225  1771276 |   150424     1572      6 |        1170  -         769 |  2.968 %  |
|         1 |       475 |   13010   308225  1771276 |   136822     2307      6 |        1175  -        1832 |  2.968 %  |
|         3 |       475 |   13010   308225  1771276 |   136822     2325      6 |        1175  -        1854 |  2.968 %  |
|         2 |       475 |   13010   308225  1771276 |   136822     2433      6 |        1175  -        1962 |  2.968 %  |
|         3 |       812 |   13010   308225  1771276 |   150505     3389      6 |        1175  -        2581 |  2.968 %  |
|         0 |      1318 |   13010   308225  1771276 |   165466     3543      6 |        1170  -        2234 |  2.968 %  |
|         1 |       812 |   13010   308225  1771276 |   150505     3554      6 |        1175  -        2742 |  2.968 %  |
|         2 |       812 |   13010   308225  1771276 |   150505     3730      6 |        1175  -        2922 |  2.968 %  |
|         3 |      1318 |   13010   308225  1771276 |   165555     4886      6 |        1175  -        3572 |  2.968 %  |
|         2 |      1318 |   13010   308225  1771276 |   165555     5231      6 |        1175  -        3917 |  2.968 %  |
|         1 |      1318 |   13010   308225  1771276 |   165555     5683      6 |        1175  -        4365 |  2.968 %  |
|         3 |      2077 |   13010   308225  1771276 |   182111     7063      6 |        1175  -        4989 |  2.968 %  |
|         0 |      2077 |   13010   308225  1771276 |   182013     7507      6 |        1170  -        5439 |  2.968 %  |
|         2 |      2077 |   13010   308225  1771276 |   182111     7815      6 |        1175  -        5742 |  2.968 %  |
|         1 |      2077 |   13010   308225  1771276 |   182111     8780      6 |        1175  -        6703 |  2.968 %  |
|         2 |      3216 |   13010   308225  1771276 |   200322    10919      6 |        1175  -        7707 |  2.968 %  |
|         3 |      3216 |   13010   308225  1771276 |   200322    10918      6 |        1175  -        7704 |  2.968 %  |
|         0 |      3216 |   13010   308225  1771276 |   200214    13121      6 |        1170  -        9914 |  2.968 %  |
|         1 |      3216 |   13010   308225  1771276 |   200322    13675      6 |        1175  -       10459 |  2.968 %  |
|         2 |      4924 |   13010   308225  1771276 |   220354    16164      6 |        1184  -       11244 |  2.968 %  |
|         3 |      4924 |   13009   308225  1771276 |   220354    16174      6 |        1175  -       11253 |  2.976 %  |
|         0 |      4924 |   13010   308225  1771276 |   220235    20375      6 |        1179  -       15460 |  2.968 %  |
|         1 |      4924 |   13010   308225  1771276 |   220354    21808      6 |        1184  -       16884 |  2.968 %  |
|         3 |      7486 |   13008   308225  1771276 |   242389    22456      7 |        1175  -       14973 |  2.983 %  |
|         2 |      7486 |   13009   308225  1771276 |   242389    23874      7 |        1185  -       16392 |  2.976 %  |
|         0 |      7486 |   13009   308225  1771276 |   242259    28712      7 |        1180  -       21234 |  2.976 %  |
|         3 |     11330 |   13008   308225  1771276 |   266628    31350      8 |        1175  -       20023 |  2.983 %  |
|         1 |      7486 |   13007   308225  1771276 |   242389    30580      7 |        1185  -       23095 |  2.991 %  |
|         2 |     11330 |   13008   308225  1771276 |   266628    37064      7 |        1195  -       25738 |  2.983 %  |
|         1 |     11330 |   13007   308225  1771276 |   266628    40985      8 |        1185  -       29656 |  2.991 %  |
|         0 |     11330 |   13008   308225  1771276 |   266485    40599      7 |        1190  -       29277 |  2.983 %  |
|         3 |     17096 |   13008   308225  1771276 |   293291    47116      9 |        1185  -       30023 |  2.983 %  |
|         2 |     17096 |   13006   308225  1771276 |   293291    53968      7 |        1195  -       36877 |  2.998 %  |
|         1 |     17096 |   13007   308225  1771276 |   293291    57047      8 |        1197  -       39952 |  2.991 %  |
|         0 |     17096 |   13007   308225  1771276 |   293133    60069      7 |        1202  -       42981 |  2.991 %  |
|         3 |     25745 |   13007   308225  1771276 |   322621    69101     10 |        1197  -       43359 |  2.991 %  |
|         1 |     25745 |   13006   308225  1771276 |   322621    76745      9 |        1197  -       51001 |  2.998 %  |
|         2 |     25745 |   13006   308225  1771276 |   322621    78477      8 |        1198  -       52737 |  2.998 %  |
|         0 |     25745 |   13006   308225  1771276 |   322447    85201      8 |        1205  -       59464 |  2.998 %  |
|         3 |     38719 |   13006   308056  1770497 |   354883   100186     10 |        1200  -       61474 |  2.998 %  |
|         1 |     38719 |   13003   308056  1770497 |   354883   108617     11 |        1197  -       69908 |  3.021 %  |
|         2 |     38719 |   13005   308042  1770440 |   354883   107885      9 |        1199  -       69176 |  3.006 %  |
|         0 |     38719 |   13005   308042  1770440 |   354692   110074      9 |        1208  -       71368 |  3.006 %  |
|         1 |     58180 |   13001   308056  1770497 |   390371   150344     13 |        1197  -       92176 |  3.036 %  |
|         0 |     58180 |   13002   308042  1770440 |   390161   145889     10 |        1209  -       87722 |  3.028 %  |
|         3 |     58180 |   13005   308056  1770497 |   390371   154133     11 |        1204  -       95960 |  3.006 %  |
|         2 |     58180 |   13003   308042  1770440 |   390371   158070     10 |        1202  -       99900 |  3.021 %  |
|         1 |     87372 |   13001   308056  1770497 |   429408   205834     15 |        1197  -      118474 |  3.036 %  |
|         0 |     87372 |   13001   308042  1770440 |   429177   198564     11 |        1210  -      111205 |  3.036 %  |
|         2 |     87372 |   13001   307965  1770153 |   429408   218449     12 |        1203  -      131090 |  3.036 %  |
|         3 |     87372 |   13001   307965  1770153 |   429408   222466     13 |        1205  -      135105 |  3.036 %  |
|         1 |    131161 |   13000   307965  1770153 |   472349   295084     16 |        1197  -      163940 |  3.043 %  |
|         0 |    131161 |   13000   307950  1770096 |   472095   274873     12 |        1210  -      143729 |  3.043 %  |
|         2 |    131161 |   13000   307965  1770153 |   472349   313575     14 |        1203  -      182427 |  3.043 %  |
|         3 |    131161 |   13000   307965  1770153 |   472349   317690     16 |        1205  -      186540 |  3.043 %  |
|         0 |    196845 |   13000   307950  1770096 |   519304   382316     15 |        1210  -      185488 |  3.043 %  |
|         2 |    196845 |   13000   307950  1770096 |   519584   423465     18 |        1203  -      226634 |  3.043 %  |
|         3 |    196845 |   13000   307950  1770096 |   519584   435821     20 |        1205  -      238988 |  3.043 %  |
|         1 |    196845 |   13000   307965  1770153 |   519584   431498     16 |        1197  -      234670 |  3.043 %  |
|         2 |    295371 |   13000   307950  1770096 |   571542    64474     35 |        1203  -      266218 |  3.043 %  |
|         0 |    295371 |   13000   307950  1770096 |   571235    32846     38 |        1210  -      234459 |  3.043 %  |
|         3 |    295371 |   13000   307950  1770096 |   571542   115070     28 |        1205  -      314282 |  3.043 %  |
|         1 |    295371 |   13000   307950  1770096 |   571542   183386     17 |        1197  -      351691 |  3.043 %  |
|         2 |    443160 |   13000   307950  1770096 |   628697   362344     26 |        1203  -      416299 |  3.043 %  |
|         0 |    443160 |   13000   307950  1770096 |   628358   325152     22 |        1210  -      378976 |  3.043 %  |
|         3 |    443160 |   13000   307950  1770096 |   628697   351131     22 |        1205  -      402554 |  3.043 %  |
|         2 |    664843 |   13000   307950  1770096 |   691566    62049     40 |        1217  -      503586 |  3.043 %  |
|         3 |    664843 |   13000   307950  1770096 |   691566    61445     27 |        1219  -      492519 |  3.043 %  |
|         0 |    664843 |   12999   307945  1770082 |   691194   115303     23 |        1210  -      532774 |  3.050 %  |
|         1 |    443160 |   13000   307950  1770096 |   628697   113163     26 |        1211  -      614119 |  3.043 %  |
|         1 |    664843 |   12999   307945  1770082 |   691566   478596     26 |        1211  -      757869 |  3.050 %  |
|         3 |    997368 |   12999   307945  1770082 |   760723   630827     23 |        1219  -      729376 |  3.050 %  |
|         2 |    997368 |   12999   307945  1770082 |   760723   687805     29 |        1217  -      796817 |  3.050 %  |
|         0 |    997368 |   12999   307945  1770082 |   760314    82504     29 |        1210  -      807454 |  3.050 %  |
|         1 |    997368 |   12999   307945  1770082 |   760723   374448     51 |        1211  -      976289 |  3.050 %  |
|         3 |   1496156 |   12999   307945  1770082 |   836795   592734     40 |        1219  -      904901 |  3.050 %  |
|         3 |   2244338 |   12999   307945  1770082 |   920475   670310     35 |        1219  -     1049112 |  3.050 %  |
|         0 |   1496156 |   12999   307945  1770082 |   836345   371978     74 |        1210  -     1323444 |  3.050 %  |
|         2 |   1496156 |   12999   307945  1770082 |   836795   394217     42 |        1217  -     1335072 |  3.050 %  |
|         1 |   1496156 |   12999   307945  1770082 |   836795   481141     34 |        1211  -     1315873 |  3.050 %  |
|         1 |   2244338 |   12999   307945  1770082 |   920475   696887     36 |        1219  -     1601398 |  3.050 %  |
|         0 |   2244338 |   12999   307945  1770082 |   919979   837286     55 |        1218  -     1830698 |  3.050 %  |
|         2 |   2244338 |   12998   307940  1770068 |   920475   242029    159 |        1217  -     2017227 |  3.058 %  |
|         1 |   3366612 |   12998   307940  1770068 |  1012522   292673     51 |        1219  -     1861148 |  3.058 %  |
|         0 |   3366612 |   12998   307940  1770068 |  1011977   427975     61 |        1218  -     2096674 |  3.058 %  |
|         3 |   3366612 |   12999   307945  1770082 |  1012522   548267     88 |        1227  -     2355155 |  3.050 %  |
|         2 |   3366612 |   12998   307940  1770068 |  1012522   255369     53 |        1217  -     2585618 |  3.058 %  |
|         0 |   5050023 |   12998   307940  1770068 |  1113175   688949     46 |        1218  -     2646781 |  3.058 %  |
|         3 |   5050023 |   12998   307940  1770068 |  1113775   610196     49 |        1227  -     2708155 |  3.058 %  |
|         1 |   5050023 |   12998   307940  1770068 |  1113775   110452     59 |        1219  -     3760868 |  3.058 %  |
|         2 |   5050023 |   12998   307940  1770068 |  1113775   290281     68 |        1217  -     3839814 |  3.058 %  |
|         0 |   7575139 |   12998   307940  1770068 |  1224493  1097469     37 |        1218  -     3753809 |  3.058 %  |
|         3 |   7575139 |   12998   307940  1770068 |  1225152   955655     53 |        1227  -     3795325 |  3.058 %  |
